[on. 05. april 11:03:06 +0200 2023]  ./input/alternate_g_np_100/100-1-0.gcc
Set parameter Username
Academic license - for non-commercial use only - expires 2024-03-28
Set parameter TimeLimit to value 1800
Set parameter PreCrush to value 1
Set parameter LazyConstraints to value 1
Gurobi Optimizer version 10.0.1 build v10.0.1rc0 (linux64)

CPU model: AMD Ryzen 9 5950X 16-Core Processor, instruction set [SSE2|AVX|AVX2]
Thread count: 16 physical cores, 32 logical processors, using up to 32 threads

Optimize a model with 106 rows, 700 columns and 1900 nonzeros
Model fingerprint: 0x91d83b6f
Variable types: 0 continuous, 700 integer (700 binary)
Coefficient statistics:
  Matrix range     [1e+00, 1e+00]
  Objective range  [3e+00, 1e+02]
  Bounds range     [1e+00, 1e+00]
  RHS range        [1e+00, 1e+00]
Presolve added 5 rows and 5 columns
Presolve time: 0.00s
Presolved: 111 rows, 705 columns, 1415 nonzeros
Variable types: 0 continuous, 705 integer (700 binary)

Root relaxation: objective 5.046000e+03, 1 iterations, 0.00 seconds (0.00 work units)

    Nodes    |    Current Node    |     Objective Bounds      |     Work
 Expl Unexpl |  Obj  Depth IntInf | Incumbent    BestBd   Gap | It/Node Time

     0     0 5046.00000    0    -          - 5046.00000      -     -    0s
     0     0 5046.00000    0    -          - 5046.00000      -     -    0s
     0     0 5046.00000    0    -          - 5046.00000      -     -    0s
     0     0 5046.00000    0    -          - 5046.00000      -     -    0s
     0     0 5046.00000    0    -          - 5046.00000      -     -    0s
     0     0 5046.00000    0    -          - 5046.00000      -     -    0s
     0     0 5046.00000    0   11          - 5046.00000      -     -    0s
     0     0 5046.00000    0    -          - 5046.00000      -     -    0s
     0     0 5046.00000    0   12          - 5046.00000      -     -    0s
     0     0 5046.00000    0    -          - 5046.00000      -     -    0s
     0     0 5046.00000    0   17          - 5046.00000      -     -    0s
     0     0 5046.00000    0    8          - 5046.00000      -     -    0s
     0     0 5046.00000    0    -          - 5046.00000      -     -    0s
     0     0 5046.00000    0    6          - 5046.00000      -     -    0s
     0     0 5046.00000    0    9          - 5046.00000      -     -    0s
     0     2 5046.00000    0    8          - 5046.00000      -     -    0s
 19386 10693 4755.00000   38   10          - 5046.00000      -  27.7    5s
 36613 24880 4877.33333   28   86          - 5046.00000      -  34.0   10s
 51329 37394 4903.25000   32   98          - 5046.00000      -  41.3   15s
 64615 48438 4537.00000   64    6          - 5046.00000      -  49.6   20s
 77922 60473 4806.58721   29  157          - 5046.00000      -  58.4   25s
 90263 71438 4529.00000   40   16          - 5046.00000      -  64.2   30s
 103746 81758 4540.50000   53   41          - 5046.00000      -  68.9   35s
*104118 77740              23    4605.0000005 4605.00000  0.00%  69.0   38s

Cutting planes:
  User: 52
  Gomory: 14
  Implied bound: 2
  Clique: 6
  MIR: 6
  StrongCG: 1
  Flow cover: 6
  Zero half: 84
  Lazy constraints: 73

Explored 104118 nodes (7226209 simplex iterations) in 38.65 seconds (23.61 work units)
Thread count was 32 (of 32 available processors)

Solution count 1: 4605 

Optimal solution found (tolerance 1.00e-04)
Best objective 4.605000000500e+03, best bound 4.605000000500e+03, gap 0.0000%

User-callback calls 211010, time in user-callback 13.58 sec
Minimal separator inequalities added: 681282
Indegree inequalities added: 0
WRONG SOLUTION
[on. 05. april 11:03:44 +0200 2023]  done

